HUN,8,6,70
4,13,1,17,2,44,3,96,5,60,0,96
2,28,4,75,5,99,1,38,0,10,3,94
5,82,4,74,2,84,1,22,3,40,0,40
1,84,2,95,3,52,5,19,0,43,4,74
1,78,5,42,0,98,3,20,2,5,4,29
4,9,0,35,1,51,5,11,3,70,2,19
0,19,1,77,4,12,5,80,3,69,2,62
4,17,0,72,3,64,5,45,1,64,2,91
